COLUMNS

passenger_count
pickup_ID
dropoff_ID
request_time_sec
pickup_district
dropoff_district
LDuals
IDuals
vehicle_ID
pick_position
drop_position

REQUESTS_INFO
3      295       527       29729     87        52        145       145       108       1         3         
1      276       365       29715     87        299       156       156       111       1         3         
1      295       527       29711     87        52        135       135       132       1         4         
1      1344      1143      29624     129       84        221       221       313       1         2         
2      372       378       29697     119       168       173       173       365       1         3         
1      277       372       29707     87        119       171       171       386       1         2         
1      304       135       29670     299       286       138       138       417       1         2         
1      332       557       29730     87        189       0         0         0         0         0         
1      287       409       29730     299       52        0         0         0         0         0         
2      598       579       29730     189       189       0         0         0         0         0         
1      912       782       29731     291       291       0         0         0         0         0         
2      486       759       29731     199       131       0         0         0         0         0         
2      1043      481       29732     291       189       0         0         0         0         0         
1      888       863       29732     290       290       0         0         0         0         0         
3      460       527       29733     189       52        0         0         0         0         0         
3      460       527       29733     189       52        0         0         0         0         0         
1      295       533       29733     87        199       0         0         0         0         0         
3      645       526       29734     280       52        0         0         0         0         0         
3      645       526       29734     280       52        0         0         0         0         0         
1      441       623       29734     168       280       0         0         0         0         0         
3      556       633       29734     199       189       0         0         0         0         0         
2      556       633       29734     199       189       0         0         0         0         0         
1      347       413       29735     299       52        0         0         0         0         0         
1      970       527       29737     290       52        0         0         0         0         0         
2      1023      937       29737     291       291       0         0         0         0         0         
1      840       851       29737     290       291       0         0         0         0         0         
1      994       1025      29738     84        291       0         0         0         0         0         
1      655       722       29738     189       290       0         0         0         0         0         
1      375       501       29738     119       52        0         0         0         0         0         
1      760       649       29739     291       189       0         0         0         0         0         
1      624       456       29739     189       52        0         0         0         0         0         
1      440       556       29739     168       199       0         0         0         0         0         
1      701       559       29739     290       189       0         0         0         0         0         
1      314       1000      29739     119       291       0         0         0         0         0         
1      440       333       29740     168       119       0         0         0         0         0         
1      313       528       29740     87        52        0         0         0         0         0         
1      718       621       29740     189       280       0         0         0         0         0         
1      418       334       29740     168       119       0         0         0         0         0         
2      535       298       29740     189       277       0         0         0         0         0         
3      535       298       29740     189       277       0         0         0         0         0         
1      287       155       29741     299       286       0         0         0         0         0         
2      724       352       29741     290       119       0         0         0         0         0         
1      226       188       29742     266       286       0         0         0         0         0         
2      527       553       29742     52        189       0         0         0         0         0         
3      527       553       29742     52        189       0         0         0         0         0         
2      99        257       29742     286       87        0         0         0         0         0         
3      99        257       29742     286       87        0         0         0         0         0         
2      688       849       29742     131       291       0         0         0         0         0         
1      802       676       29742     291       189       0         0         0         0         0         
1      296       813       29743     277       290       0         0         0         0         0         
1      991       903       29743     290       290       0         0         0         0         0         
1      609       836       29743     189       290       0         0         0         0         0         
1      508       435       29743     199       52        0         0         0         0         0         
1      623       760       29744     280       291       0         0         0         0         0         
2      904       926       29745     290       290       0         0         0         0         0         
1      1107      896       29745     291       291       0         0         0         0         0         
1      315       527       29746     277       52        0         0         0         0         0         
1      1032      929       29746     84        290       0         0         0         0         0         
1      827       937       29746     291       291       0         0         0         0         0         
1      78        310       29747     9         127       0         0         0         0         0         
1      233       487       29747     206       199       0         0         0         0         0         
4      813       884       29747     290       290       0         0         0         0         0         
2      963       999       29747     50        291       0         0         0         0         0         
1      579       858       29747     189       290       0         0         0         0         0         
1      397       280       29748     168       277       0         0         0         0         0         
1      314       632       29748     119       189       0         0         0         0         0         
1      652       298       29750     189       277       0         0         0         0         0         
1      1087      335       29750     291       119       0         0         0         0         0         
2      817       881       29750     290       290       0         0         0         0         0         
1      829       488       29751     50        199       0         0         0         0         0         
1      981       848       29752     291       291       0         0         0         0         0         
1      643       388       29752     131       299       0         0         0         0         0         
4      1034      1199      29753     84        84        0         0         0         0         0         
2      1310      1162      29753     84        84        0         0         0         0         0         
1      118       19        29754     286       98        0         0         0         0         0         
1      847       969       29754     291       290       0         0         0         0         0         
1      904       929       29754     290       290       0         0         0         0         0         
1      992       378       29755     290       168       0         0         0         0         0         
2      669       409       29756     280       52        0         0         0         0         0         
3      1180      693       29756     84        280       0         0         0         0         0         
2      731       526       29757     131       52        0         0         0         0         0         
2      488       811       29758     199       290       0         0         0         0         0         
4      464       439       29758     168       189       0         0         0         0         0         
1      356       527       29758     119       52        0         0         0         0         0         
